param dimW := 25;
param dimH := 25;

param W :=
1 0.0
2 1.0
3 2.0
4 3.0
5 4.0
6 5.0
7 6.0
8 7.0
9 8.0
10 9.0
11 10.0
12 11.0
13 12.0
14 13.0
15 14.0
16 15.0
17 16.0
18 17.0
19 18.0
20 19.0
21 20.0
22 21.0
23 22.0
24 23.0
25 24.0;

param H :=
1 0.0
2 1.0
3 2.0
4 3.0
5 4.0
6 5.0
7 6.0
8 7.0
9 8.0
10 9.0
11 10.0
12 11.0
13 12.0
14 13.0
15 14.0
16 15.0
17 16.0
18 17.0
19 18.0
20 19.0
21 20.0
22 21.0
23 22.0
24 23.0
25 24.0;

param n := 562;

param scale := 800;

set S := "S2C" "S2CPro" "S3";

param I :=
"S2C" 0.305891
"S2CPro" 0.755891
"S3" 0.76198;

param MC := 
"S2C" 28.45
"S2CPro" 34.31
"S3" 40.32;

param RMAX :=
"S2C" 1.2
"S2CPro" 3.2
"S3" 3.2;

param X :=
1 1
2 1
3 1
4 1
5 1
6 1
7 1
8 1
9 1
10 1
11 1
12 1
13 1
14 1
15 1
16 1
17 1
18 1
19 1
20 1
21 1
22 1
23 2
24 2
25 2
26 2
27 2
28 2
29 2
30 2
31 2
32 2
33 2
34 2
35 2
36 2
37 2
38 2
39 2
40 2
41 2
42 2
43 2
44 3
45 3
46 3
47 3
48 3
49 3
50 3
51 3
52 3
53 3
54 3
55 3
56 3
57 3
58 3
59 3
60 3
61 3
62 3
63 3
64 3
65 4
66 4
67 4
68 4
69 4
70 4
71 4
72 4
73 4
74 4
75 4
76 4
77 4
78 4
79 4
80 4
81 4
82 4
83 4
84 4
85 4
86 4
87 4
88 4
89 4
90 5
91 5
92 5
93 5
94 5
95 5
96 5
97 5
98 5
99 5
100 5
101 5
102 5
103 5
104 5
105 5
106 5
107 5
108 5
109 5
110 5
111 5
112 5
113 5
114 6
115 6
116 6
117 6
118 6
119 6
120 6
121 6
122 6
123 6
124 6
125 6
126 6
127 6
128 6
129 6
130 6
131 6
132 6
133 6
134 7
135 7
136 7
137 7
138 7
139 7
140 7
141 7
142 7
143 7
144 7
145 7
146 7
147 7
148 7
149 7
150 7
151 7
152 7
153 7
154 7
155 7
156 7
157 8
158 8
159 8
160 8
161 8
162 8
163 8
164 8
165 8
166 8
167 8
168 8
169 8
170 8
171 8
172 8
173 8
174 8
175 8
176 8
177 8
178 9
179 9
180 9
181 9
182 9
183 9
184 9
185 9
186 9
187 9
188 9
189 9
190 9
191 9
192 9
193 9
194 9
195 9
196 9
197 9
198 9
199 9
200 10
201 10
202 10
203 10
204 10
205 10
206 10
207 10
208 10
209 10
210 10
211 10
212 10
213 10
214 10
215 10
216 10
217 10
218 10
219 10
220 10
221 11
222 11
223 11
224 11
225 11
226 11
227 11
228 11
229 11
230 11
231 11
232 11
233 11
234 11
235 11
236 11
237 11
238 11
239 11
240 11
241 11
242 11
243 12
244 12
245 12
246 12
247 12
248 12
249 12
250 12
251 12
252 12
253 12
254 12
255 12
256 12
257 12
258 12
259 12
260 12
261 12
262 12
263 12
264 12
265 12
266 12
267 12
268 13
269 13
270 13
271 13
272 13
273 13
274 13
275 13
276 13
277 13
278 13
279 13
280 13
281 13
282 13
283 13
284 13
285 13
286 13
287 13
288 13
289 13
290 13
291 13
292 14
293 14
294 14
295 14
296 14
297 14
298 14
299 14
300 14
301 14
302 14
303 14
304 14
305 14
306 14
307 14
308 14
309 14
310 14
311 15
312 15
313 15
314 15
315 15
316 15
317 15
318 15
319 15
320 15
321 15
322 15
323 15
324 15
325 15
326 15
327 15
328 15
329 15
330 15
331 15
332 15
333 15
334 15
335 16
336 16
337 16
338 16
339 16
340 16
341 16
342 16
343 16
344 16
345 16
346 16
347 16
348 16
349 16
350 16
351 16
352 16
353 16
354 16
355 16
356 16
357 17
358 17
359 17
360 17
361 17
362 17
363 17
364 17
365 17
366 17
367 17
368 17
369 17
370 17
371 17
372 17
373 17
374 17
375 17
376 17
377 17
378 17
379 17
380 17
381 18
382 18
383 18
384 18
385 18
386 18
387 18
388 18
389 18
390 18
391 18
392 18
393 18
394 18
395 18
396 18
397 18
398 18
399 18
400 18
401 18
402 18
403 18
404 19
405 19
406 19
407 19
408 19
409 19
410 19
411 19
412 19
413 19
414 19
415 19
416 19
417 19
418 19
419 19
420 19
421 19
422 19
423 19
424 19
425 19
426 19
427 19
428 19
429 20
430 20
431 20
432 20
433 20
434 20
435 20
436 20
437 20
438 20
439 20
440 20
441 20
442 20
443 20
444 20
445 20
446 20
447 20
448 20
449 20
450 20
451 20
452 21
453 21
454 21
455 21
456 21
457 21
458 21
459 21
460 21
461 21
462 21
463 21
464 21
465 21
466 21
467 21
468 21
469 21
470 21
471 21
472 21
473 21
474 21
475 22
476 22
477 22
478 22
479 22
480 22
481 22
482 22
483 22
484 22
485 22
486 22
487 22
488 22
489 22
490 22
491 22
492 22
493 22
494 22
495 22
496 22
497 23
498 23
499 23
500 23
501 23
502 23
503 23
504 23
505 23
506 23
507 23
508 23
509 23
510 23
511 23
512 23
513 23
514 23
515 23
516 23
517 23
518 23
519 24
520 24
521 24
522 24
523 24
524 24
525 24
526 24
527 24
528 24
529 24
530 24
531 24
532 24
533 24
534 24
535 24
536 24
537 24
538 24
539 24
540 24
541 25
542 25
543 25
544 25
545 25
546 25
547 25
548 25
549 25
550 25
551 25
552 25
553 25
554 25
555 25
556 25
557 25
558 25
559 25
560 25
561 25
562 25;

param Y :=
1 1
2 2
3 3
4 4
5 5
6 6
7 7
8 8
9 9
10 10
11 11
12 12
13 13
14 14
15 15
16 16
17 17
18 18
19 20
20 21
21 23
22 24
23 1
24 2
25 3
26 4
27 5
28 6
29 7
30 8
31 10
32 13
33 14
34 15
35 16
36 17
37 18
38 19
39 21
40 22
41 23
42 24
43 25
44 1
45 2
46 3
47 4
48 5
49 6
50 7
51 8
52 9
53 11
54 12
55 13
56 14
57 15
58 16
59 17
60 18
61 19
62 20
63 22
64 25
65 1
66 2
67 3
68 4
69 5
70 6
71 7
72 8
73 9
74 10
75 11
76 12
77 13
78 14
79 15
80 16
81 17
82 18
83 19
84 20
85 21
86 22
87 23
88 24
89 25
90 1
91 2
92 3
93 4
94 5
95 6
96 7
97 8
98 9
99 10
100 11
101 12
102 13
103 14
104 15
105 16
106 17
107 18
108 19
109 20
110 21
111 22
112 23
113 25
114 1
115 2
116 3
117 4
118 5
119 6
120 7
121 8
122 9
123 11
124 13
125 14
126 15
127 16
128 17
129 18
130 19
131 21
132 23
133 25
134 1
135 2
136 3
137 4
138 5
139 6
140 7
141 8
142 9
143 10
144 11
145 12
146 13
147 14
148 15
149 16
150 17
151 18
152 20
153 21
154 22
155 23
156 25
157 1
158 2
159 3
160 4
161 5
162 6
163 7
164 8
165 9
166 10
167 11
168 12
169 13
170 14
171 16
172 17
173 18
174 19
175 21
176 24
177 25
178 1
179 2
180 3
181 4
182 5
183 6
184 7
185 8
186 9
187 10
188 11
189 12
190 13
191 14
192 15
193 16
194 17
195 18
196 19
197 20
198 22
199 24
200 1
201 2
202 3
203 4
204 5
205 6
206 7
207 8
208 9
209 10
210 11
211 12
212 13
213 14
214 15
215 16
216 17
217 18
218 21
219 24
220 25
221 1
222 2
223 3
224 4
225 5
226 6
227 7
228 8
229 9
230 10
231 11
232 12
233 13
234 14
235 16
236 17
237 18
238 19
239 20
240 21
241 24
242 25
243 1
244 2
245 3
246 4
247 5
248 6
249 7
250 8
251 9
252 10
253 11
254 12
255 13
256 14
257 15
258 16
259 17
260 18
261 19
262 20
263 21
264 22
265 23
266 24
267 25
268 1
269 2
270 3
271 4
272 5
273 6
274 7
275 8
276 9
277 10
278 11
279 12
280 13
281 14
282 15
283 16
284 17
285 18
286 19
287 20
288 22
289 23
290 24
291 25
292 1
293 3
294 4
295 5
296 6
297 7
298 8
299 9
300 10
301 11
302 12
303 13
304 14
305 15
306 16
307 18
308 22
309 24
310 25
311 1
312 2
313 3
314 4
315 5
316 6
317 7
318 8
319 9
320 10
321 11
322 12
323 13
324 14
325 15
326 16
327 17
328 18
329 19
330 21
331 22
332 23
333 24
334 25
335 1
336 2
337 3
338 4
339 5
340 6
341 7
342 8
343 9
344 10
345 11
346 12
347 13
348 14
349 15
350 16
351 17
352 18
353 21
354 23
355 24
356 25
357 1
358 2
359 3
360 4
361 5
362 6
363 7
364 8
365 9
366 10
367 11
368 12
369 13
370 14
371 15
372 16
373 17
374 18
375 19
376 20
377 21
378 23
379 24
380 25
381 1
382 2
383 3
384 4
385 5
386 6
387 7
388 8
389 9
390 10
391 11
392 12
393 13
394 14
395 15
396 16
397 17
398 18
399 19
400 20
401 21
402 22
403 25
404 1
405 2
406 3
407 4
408 5
409 6
410 7
411 8
412 9
413 10
414 11
415 12
416 13
417 14
418 15
419 16
420 17
421 18
422 19
423 20
424 21
425 22
426 23
427 24
428 25
429 1
430 2
431 3
432 4
433 5
434 6
435 7
436 8
437 9
438 10
439 11
440 12
441 13
442 14
443 15
444 16
445 17
446 19
447 20
448 21
449 22
450 24
451 25
452 1
453 2
454 3
455 4
456 5
457 6
458 7
459 8
460 9
461 10
462 11
463 12
464 13
465 14
466 15
467 16
468 17
469 19
470 20
471 21
472 22
473 23
474 25
475 1
476 2
477 3
478 4
479 5
480 6
481 7
482 8
483 9
484 10
485 11
486 12
487 13
488 14
489 15
490 16
491 17
492 18
493 20
494 22
495 23
496 25
497 1
498 2
499 3
500 4
501 5
502 6
503 7
504 8
505 9
506 10
507 11
508 12
509 13
510 14
511 15
512 16
513 17
514 18
515 19
516 21
517 24
518 25
519 1
520 2
521 3
522 4
523 5
524 6
525 7
526 8
527 9
528 10
529 11
530 12
531 13
532 14
533 15
534 16
535 17
536 18
537 20
538 21
539 23
540 25
541 1
542 2
543 3
544 5
545 6
546 7
547 8
548 9
549 10
550 11
551 12
552 13
553 14
554 15
555 16
556 17
557 18
558 19
559 20
560 21
561 22
562 25;